SECTION Graph
Nodes 237
Edges 444
E 1 6 7
E 1 214 1
E 1 215 1
E 1 216 6
E 2 216 5
E 3 214 6
E 3 216 1
E 4 215 6
E 4 216 1
E 5 10 7
E 5 209 1
E 5 210 1
E 5 211 5
E 6 211 6
E 6 212 1
E 6 213 1
E 7 209 5
E 7 211 1
E 7 212 6
E 8 210 5
E 8 211 1
E 8 213 6
E 9 14 7
E 9 204 1
E 9 205 1
E 9 206 6
E 10 206 5
E 10 207 1
E 10 208 1
E 11 204 6
E 11 206 1
E 11 207 5
E 12 205 6
E 12 206 1
E 12 208 5
E 13 190 6
E 13 196 1
E 13 197 1
E 13 198 5
E 14 198 6
E 14 202 1
E 14 203 1
E 15 196 5
E 15 198 1
E 15 202 6
E 16 197 5
E 16 198 1
E 16 203 6
E 17 191 3
E 17 194 1
E 17 195 1
E 18 20 1
E 18 201 1
E 19 21 1
E 19 194 1
E 19 195 1
E 19 200 11
E 20 22 1
E 20 200 1
E 21 178 14
E 21 193 1
E 21 199 11
E 22 192 14
E 22 199 1
E 23 148 1
E 24 145 3
E 24 148 1
E 24 150 1
E 24 151 1
E 25 149 11
E 25 158 1
E 26 170 1
E 26 179 6
E 27 28 1
E 27 172 14
E 27 182 2
E 27 193 3
E 28 184 2
E 28 191 1
E 28 194 3
E 29 162 14
E 29 170 6
E 29 179 1
E 29 180 6
E 30 73 1
E 31 33 1
E 31 138 6
E 31 155 26
E 32 142 1
E 32 143 1
E 32 146 2
E 32 165 26
E 33 35 1
E 33 137 6
E 34 36 1
E 34 137 6
E 34 142 1
E 34 143 1
E 35 136 6
E 36 136 6
E 36 141 1
E 37 42 7
E 37 139 1
E 37 140 1
E 37 147 6
E 38 147 5
E 38 153 1
E 38 154 1
E 38 156 6
E 39 139 6
E 39 147 1
E 39 153 5
E 40 140 6
E 40 147 1
E 40 154 5
E 41 132 1
E 41 133 5
E 42 133 6
E 42 134 1
E 42 135 1
E 43 132 5
E 43 133 1
E 43 134 6
E 44 133 1
E 44 135 6
E 45 50 7
E 45 127 1
E 45 129 1
E 45 130 6
E 46 130 5
E 46 131 1
E 47 127 6
E 47 130 1
E 48 129 6
E 48 130 1
E 48 131 5
E 49 106 21
E 49 115 1
E 49 119 5
E 50 119 6
E 50 122 1
E 50 123 1
E 51 103 26
E 51 119 1
E 51 122 6
E 52 115 5
E 52 119 1
E 52 123 6
E 53 60 1
E 53 74 1
E 53 117 1
E 53 124 9
E 54 61 1
E 54 74 1
E 54 121 1
E 54 126 9
E 55 124 6
E 55 128 1
E 56 117 9
E 56 124 1
E 56 128 6
E 57 121 9
E 57 126 1
E 58 75 1
E 58 86 24
E 58 110 5
E 58 112 6
E 59 75 1
E 59 76 5
E 59 111 1
E 59 114 6
E 60 112 9
E 60 116 1
E 60 118 1
E 61 114 9
E 61 118 1
E 61 120 1
E 62 97 23
E 62 109 11
E 62 112 1
E 62 116 9
E 63 111 6
E 63 114 1
E 63 120 9
E 64 88 3
E 64 92 1
E 64 96 1
E 64 101 9
E 65 91 3
E 65 96 1
E 65 98 1
E 65 107 9
E 66 75 5
E 66 76 1
E 66 101 6
E 66 110 1
E 67 76 1
E 67 107 6
E 67 111 5
E 68 92 9
E 68 99 1
E 68 101 1
E 68 110 6
E 69 98 9
E 69 107 1
E 70 77 12
E 71 77 1
E 72 94 172
E 73 179 1
E 73 183 6
E 74 118 1
E 74 125 9
E 75 113 6
E 76 104 6
E 77 78 29
E 77 85 42
E 78 79 1
E 78 80 6
E 79 81 6
E 79 99 24
E 80 81 1
E 80 83 5
E 81 82 1
E 81 84 5
E 82 86 5
E 82 109 23
E 83 84 1
E 83 93 6
E 84 86 1
E 84 95 6
E 85 87 1
E 85 90 3
E 86 97 6
E 87 88 1
E 87 92 3
E 88 89 1
E 89 91 1
E 89 96 3
E 90 92 1
E 90 99 9
E 91 94 1
E 93 95 1
E 93 100 9
E 94 98 3
E 95 97 1
E 95 102 9
E 96 104 9
E 97 105 9
E 99 109 6
E 100 102 1
E 100 103 1
E 101 104 1
E 102 105 1
E 102 106 1
E 103 106 1
E 104 107 1
E 105 108 1
E 105 116 23
E 106 108 1
E 108 115 21
E 108 117 23
E 109 110 1
E 112 113 1
E 113 114 1
E 113 118 9
E 115 128 29
E 116 117 1
E 120 121 1
E 122 127 7
E 123 129 7
E 124 125 1
E 125 126 1
E 131 132 7
E 134 139 7
E 135 140 7
E 136 137 1
E 137 138 1
E 138 142 6
E 138 160 26
E 141 143 1
E 141 144 2
E 142 163 26
E 143 145 2
E 144 145 1
E 144 148 3
E 145 146 1
E 146 150 3
E 146 169 26
E 148 149 1
E 149 151 1
E 150 152 1
E 150 173 26
E 151 152 1
E 151 158 11
E 152 159 11
E 152 175 26
E 153 155 6
E 154 157 6
E 155 156 1
E 155 160 6
E 156 157 1
E 156 161 6
E 157 162 6
E 157 170 14
E 158 159 1
E 159 185 26
E 160 161 1
E 160 163 6
E 161 162 1
E 161 164 6
E 162 166 6
E 163 164 1
E 163 165 1
E 164 166 1
E 164 167 1
E 165 167 1
E 165 169 2
E 166 168 1
E 166 180 14
E 167 168 1
E 167 171 2
E 168 172 2
E 168 182 14
E 169 171 1
E 169 173 3
E 171 172 1
E 171 174 3
E 172 176 3
E 173 174 1
E 173 175 1
E 174 176 1
E 174 177 1
E 175 177 1
E 175 185 11
E 176 178 1
E 176 193 14
E 177 178 1
E 177 187 11
E 178 189 11
E 179 181 6
E 180 181 1
E 180 182 1
E 181 183 1
E 181 184 1
E 182 184 1
E 183 186 1
E 184 186 1
E 185 187 1
E 185 188 1
E 186 191 2
E 187 189 1
E 187 190 1
E 188 190 1
E 188 196 6
E 189 192 1
E 189 199 14
E 190 192 1
E 192 197 6
E 193 194 1
E 195 201 11
E 199 200 1
E 200 201 1
E 202 204 7
E 203 205 7
E 207 209 7
E 208 210 7
E 212 214 7
E 213 215 7
E 1 217 100000
E 2 217 100000
E 3 217 100000
E 4 217 100000
E 5 218 100000
E 6 218 100000
E 7 218 100000
E 8 218 100000
E 9 219 100000
E 10 219 100000
E 11 219 100000
E 12 219 100000
E 13 220 100000
E 14 220 100000
E 15 220 100000
E 16 220 100000
E 17 221 100000
E 18 221 100000
E 19 222 100000
E 20 222 100000
E 21 223 100000
E 22 223 100000
E 23 224 100000
E 24 224 100000
E 25 224 100000
E 26 225 100000
E 27 225 100000
E 28 225 100000
E 29 225 100000
E 30 225 100000
E 31 226 100000
E 32 226 100000
E 33 227 100000
E 34 227 100000
E 35 228 100000
E 36 228 100000
E 37 229 100000
E 38 229 100000
E 39 229 100000
E 40 229 100000
E 41 230 100000
E 42 230 100000
E 43 230 100000
E 44 230 100000
E 45 231 100000
E 46 231 100000
E 47 231 100000
E 48 231 100000
E 49 232 100000
E 50 232 100000
E 51 232 100000
E 52 232 100000
E 53 233 100000
E 54 233 100000
E 55 233 100000
E 56 233 100000
E 57 233 100000
E 58 234 100000
E 59 234 100000
E 60 234 100000
E 61 234 100000
E 62 234 100000
E 63 234 100000
E 64 235 100000
E 65 235 100000
E 66 235 100000
E 67 235 100000
E 68 235 100000
E 69 235 100000
E 70 236 100000
E 71 236 100000
E 72 237 100000
E 73 225 100000
E 74 233 100000
E 75 234 100000
E 76 235 100000
END

SECTION Terminals
Terminals 21
T 217
T 218
T 219
T 220
T 221
T 222
T 223
T 224
T 225
T 226
T 227
T 228
T 229
T 230
T 231
T 232
T 233
T 234
T 235
T 236
T 237
END

EOF
